0 18 22
1 20 23
2 16 22
3 23 22
4 13 20
5 15 19
6 18 17
7 11 17
8 13 16
9 12 14
10 14 13
11 14 13
12 14 13
13 14 13
14 12 13
15 8 11
16 2 10
17 3 15
18 14 15
19 14 14
20 6 13
21 10 11
22 9 9
23 5 8
24 6 8
25 4 6
26 7 8
27 8 8
28 7 7
29 5 7
30 7 7
31 6 6
32 3 6
33 4 5
34 5 5
35 3 5
36 3 4
37 2 4
38 1 2
39 1 1

